%nprocshared=10
%mem=12GB
%chk= 1.chk
# freq b3lyp/6-31g(d)

good luck!

0 1
O      1.217693    0.000000   -0.000000
C      0.000000    0.000000    0.000000
C     -0.810517   -1.293529    0.012646
C     -1.993454   -1.319487   -0.987274
C     -1.594031   -1.586812   -2.436938
C     -0.290849   -1.424765   -2.926452
C      0.005042   -1.670609   -4.271023
C     -0.992812   -2.086147   -5.150174
C     -2.295188   -2.259502   -4.674638
C     -2.586615   -2.013274   -3.334968
C     -2.820570   -0.013852   -0.846562
C     -1.960695    1.244104   -1.018885
C     -0.815247    1.285019    0.012646
H     -1.232062   -1.383703    1.025446
H     -0.128877   -2.136501   -0.131858
H     -2.648192   -2.148675   -0.686902
H      0.511324   -1.114743   -2.264813
H      1.024039   -1.538323   -4.625310
H     -0.759939   -2.279509   -6.193862
H     -3.082142   -2.593150   -5.346228
H     -3.602665   -2.161112   -2.973487
H     -3.636838   -0.015773   -1.577853
H     -3.287992   -0.000874    0.149123
H     -1.539769    1.265057   -2.031994
H     -2.579658    2.143344   -0.916674
H     -0.137188    2.128070   -0.149414
H     -1.246061    1.394167    1.020403


