%nprocshared=8
%mem=8GB
%chk= 0.chk
# freq b3lyp/6-31g(d)

good luck!

0 1
C     -3.960946   -0.069272   -1.931709
C     -2.509879   -0.062856   -1.423118
C     -1.583792   -0.122725   -2.643752
C     -2.296853    1.029661   -0.304028
C     -2.810703   -0.019211    0.721846
C     -2.289478   -1.099455   -0.262366
C     -0.794126   -1.316849    0.003961
C      0.000000    0.000000    0.000000
C     -0.811673    1.312384    0.003961
C     -0.150053    2.401900   -0.851774
O      1.216037    0.000000    0.000000
H     -4.144783    0.799201   -2.576524
H     -4.700386   -0.042963   -1.125868
H     -4.153928   -0.969962   -2.527979
H     -1.778273   -1.039230   -3.216074
H     -0.518260   -0.115822   -2.398914
H     -1.771448    0.724500   -3.314779
H     -2.859673    1.965161   -0.410237
H     -3.896684   -0.023534    0.835217
H     -2.357770    0.002906    1.720780
H     -2.830486   -2.051202   -0.325811
H     -0.645372   -1.791928    0.984195
H     -0.325207   -1.982498   -0.730383
H     -0.764772    1.658719    1.050192
H     -0.637719    3.367719   -0.679056
H      0.907536    2.491181   -0.589546
H     -0.215512    2.178610   -1.920859


