%nprocshared=8
%mem=4GB
%chk= 0.chk
# freq b3lyp/6-31g(d)

good luck!

0 1
O      1.217509    0.000000   -0.000000
C      0.000000    0.000000    0.000000
C     -0.812204   -1.289159   -0.009453
C     -1.852881   -1.286011   -1.148162
C     -2.712341   -0.014766   -1.121151
C     -1.854558    1.259007   -1.173318
C     -0.822623    1.287842   -0.009453
C      0.047379    2.550564   -0.044507
C     -0.811417    3.823011   -0.050234
C     -1.831477    3.810633   -1.198628
C     -2.699791    2.544085   -1.165596
H     -0.122518   -2.134958   -0.084393
H     -1.337011   -1.367180    0.954944
H     -2.483591   -2.180156   -1.075226
H     -1.329220   -1.350674   -2.111907
H     -3.323124   -0.002066   -0.205406
H     -3.416295   -0.020495   -1.963691
H     -1.281118    1.240667   -2.115304
H     -1.409430    1.283449    0.926955
H      0.678363    2.520711   -0.942795
H      0.736692    2.547912    0.806892
H     -1.346973    3.906399    0.907477
H     -0.168447    4.709112   -0.123746
H     -2.467700    4.703637   -1.154216
H     -1.296246    3.856227   -2.158465
H     -3.390979    2.533929   -2.019151
H     -3.324232    2.553067   -0.258829


