%nprocshared=8
%mem=4GB
%chk= 0.chk
# freq b3lyp/6-31g(d)

good luck!

0 1
O      1.213625   -0.000000   -0.000000
C      0.000000    0.000000    0.000000
C     -0.916359   -1.228989   -0.006493
C     -0.247248   -2.516495    0.439634
C     -2.119165   -0.673006    0.796927
C     -1.524644   -1.252255   -1.451218
C     -2.538197   -0.066461   -1.458846
C     -2.312010    0.591418   -0.076515
C     -0.901872    1.259193   -0.006493
C     -0.703441    2.040306    1.311518
C     -0.527198    2.187539   -1.174245
H      0.131419   -2.431304    1.464279
H     -0.948837   -3.358061    0.401943
H      0.607381   -2.750083   -0.204321
H     -1.880315   -0.469866    1.845862
H     -2.985563   -1.344327    0.767047
H     -2.025754   -2.214002   -1.611283
H     -0.749606   -1.162105   -2.220251
H     -3.567351   -0.436156   -1.526314
H     -2.392008    0.618534   -2.297734
H     -3.118991    1.264618    0.230027
H     -1.303003    2.958502    1.297283
H      0.349462    2.318032    1.425312
H     -0.994121    1.464412    2.195549
H     -1.214621    3.040666   -1.227029
H     -0.541906    1.679075   -2.142776
H      0.486726    2.572520   -1.025721


