%nprocshared=10
%mem=12GB
%chk= 0.chk
# freq b3lyp/6-31g(d)

good luck!

0 1
O      1.217756    0.000000    0.000000
C      0.000000    0.000000    0.000000
C     -0.820508   -1.301965    0.002777
C      0.085105   -2.489707   -0.355159
C     -1.382508   -1.513633    1.431191
C     -1.974142   -1.193791   -1.036605
C     -2.831912    0.087218   -0.944953
C     -4.055830    0.105443   -1.929855
C     -4.894042    1.380980   -1.690573
C     -3.625552    0.068683   -3.410875
C     -4.970912   -1.107005   -1.649065
C     -1.898893    1.308948   -1.072912
C     -0.795396    1.298319    0.002777
H     -0.493457   -3.421173   -0.354874
H      0.530962   -2.361960   -1.347173
H      0.905214   -2.587957    0.361335
H     -0.567180   -1.587683    2.159609
H     -1.952754   -2.449765    1.467758
H     -2.048373   -0.706955    1.752778
H     -2.597287   -2.088627   -0.926486
H     -1.527925   -1.250333   -2.039209
H     -3.275638    0.124913    0.062394
H     -4.358783    2.291975   -1.977196
H     -5.182812    1.476384   -0.636036
H     -5.815306    1.347048   -2.284139
H     -3.064671   -0.840534   -3.653900
H     -4.509205    0.089169   -4.060180
H     -3.004549    0.930530   -3.679545
H     -4.495114   -2.058001   -1.909140
H     -5.891218   -1.033235   -2.240525
H     -5.259737   -1.151946   -0.591202
H     -1.425649    1.312251   -2.064180
H     -2.457445    2.246648   -0.990167
H     -0.090798    2.124684   -0.130415
H     -1.257900    1.419177    0.993456


