%nprocshared=8
%mem=4GB
%chk= 0.chk
# freq b3lyp/6-31g(d)

good luck!

0 1
O      1.206996    0.000000   -0.000000
C      0.000000    0.000000    0.000000
C     -1.012269   -1.158426   -0.011588
C     -1.768385   -0.793627   -1.320565
C     -1.768385    0.793627   -1.320565
C     -3.247680    1.224839   -1.467852
C     -4.102322    0.000000   -1.076376
C     -3.247681   -1.224839   -1.467852
C     -1.012269    1.158426   -0.011588
C     -1.836259    0.786511    1.244096
C     -1.836259   -0.786511    1.244096
H     -0.576374   -2.158813    0.001132
H     -1.181188   -1.178521   -2.161445
H     -1.181188    1.178521   -2.161445
H     -3.436628    1.482571   -2.517168
H     -3.492073    2.116065   -0.878522
H     -4.303160    0.000000    0.000481
H     -5.077104    0.000000   -1.576847
H     -3.436629   -1.482571   -2.517168
H     -3.492073   -2.116064   -0.878522
H     -0.576374    2.158813    0.001132
H     -1.347106    1.176156    2.143106
H     -2.844644    1.208654    1.220354
H     -2.844644   -1.208654    1.220354
H     -1.347106   -1.176156    2.143106


