%nprocshared=8
%mem=4GB
%chk= 1.chk
# freq b3lyp/6-31g(d)

good luck!

0 1
O      1.217369   -0.000000   -0.000000
C      0.000000    0.000000    0.000000
C     -0.826699   -1.291520   -0.004757
C      0.065134   -2.541012   -0.043574
C     -0.682116   -3.854292    0.212139
C     -1.870229   -1.228178   -1.149674
C     -2.723312    0.047336   -1.101732
C     -1.849130    1.307188   -1.139861
C     -0.804935    1.294651   -0.004757
H     -1.392050   -1.287528    0.944026
H      0.860152   -2.418677    0.699934
H      0.575899   -2.582926   -1.014568
H     -1.198123   -3.837374    1.180714
H      0.015456   -4.699217    0.225363
H     -1.432067   -4.063663   -0.559176
H     -1.339620   -1.277246   -2.112159
H     -2.515681   -2.112813   -1.105062
H     -3.327323    0.048649   -0.182339
H     -3.431508    0.054113   -1.939701
H     -1.328258    1.360079   -2.106011
H     -2.465487    2.211343   -1.066651
H     -1.326714    1.373088    0.961289
H     -0.107642    2.134428   -0.077178


