%nprocshared=10
%mem=12GB
%chk= 2.chk
# freq b3lyp/6-31g(d)

good luck!

0 1
O      1.216327    0.000000    0.000000
C      0.000000    0.000000    0.000000
C     -0.848728   -1.267967    0.003192
C     -1.731779   -1.261558    1.275515
C     -1.753169   -1.257225   -1.252538
C     -2.642993   -0.000036   -1.230108
C     -1.753192    1.257173   -1.252535
C     -0.848739    1.267959    0.003192
C     -1.731773    1.261543    1.275525
C     -2.642534   -0.000009    1.321905
C     -3.473725    0.000027    2.612628
C     -2.827946    0.000929    3.861829
C     -3.547964    0.001270    5.054755
C     -4.944022    0.000788    5.033248
C     -5.602779    0.000064    3.805879
C     -4.875698   -0.000248    2.612264
C     -3.515385   -0.000016    0.041608
H     -0.179072   -2.134122    0.002409
H     -1.093858   -1.301729    2.166144
H     -2.354805   -2.165702    1.293561
H     -1.139396   -1.275628   -2.162579
H     -2.370936   -2.165431   -1.263189
H     -3.296788   -0.000033   -2.111850
H     -1.139418    1.275581   -2.162575
H     -2.370984    2.165363   -1.263197
H     -0.179101    2.134128    0.002375
H     -1.093864    1.301644    2.166162
H     -2.354781    2.165693    1.293616
H     -1.742313    0.001409    3.909674
H     -3.016268    0.001923    6.002829
H     -5.508555    0.001074    5.961736
H     -6.689224   -0.000225    3.769454
H     -5.421790   -0.000747    1.675478
H     -4.168755   -0.882603    0.035297
H     -4.168724    0.882597    0.035242


