%nprocshared=8
%mem=4GB
%chk= 0.chk
# freq b3lyp/6-31g(d)

good luck!

0 1
O      1.216987   -0.000000   -0.000000
C      0.000000    0.000000    0.000000
C     -0.821228   -1.281888   -0.003896
C     -1.873644   -1.309724   -1.146894
C     -1.156971   -1.445961   -2.506051
C     -2.802186   -2.520771   -0.950829
C     -2.711204   -0.007987   -1.087132
C     -1.885451    1.290741   -1.123508
C     -2.780791    2.531736   -1.024093
C     -0.819317    1.282932   -0.003896
H     -1.348036   -1.344522    0.960878
H     -0.138672   -2.135618   -0.067505
H     -1.879287   -1.421822   -3.331137
H     -0.616160   -2.397992   -2.562041
H     -0.425357   -0.648835   -2.676599
H     -3.546947   -2.577729   -1.754332
H     -2.233599   -3.458595   -0.955542
H     -3.341378   -2.459277    0.002469
H     -3.432854   -0.005469   -1.915756
H     -3.307291   -0.016398   -0.161006
H     -1.356323    1.338944   -2.085482
H     -3.511216    2.558601   -1.841426
H     -3.337108    2.540576   -0.077843
H     -2.188933    3.453231   -1.072202
H     -0.137899    2.135520   -0.085356
H     -1.333605    1.356634    0.967980


