%nprocshared=8
%mem=4GB
%chk= 0.chk
# freq b3lyp/6-31g(d)

good luck!

0 1
O     -3.813995   -2.208233    0.525138
C     -3.088357   -1.583935    1.578428
C     -1.989385   -0.655651    1.079226
C     -0.971281   -1.172236   -0.007243
C     -1.994171   -0.661940   -1.080084
C     -2.288463    0.426640   -0.008177
C     -0.962390    1.216922   -0.007243
C      0.000000    0.000000    0.000000
O      1.209366    0.000000   -0.000000
H     -4.472675   -2.793010    0.928808
H     -2.620777   -2.342203    2.228049
H     -3.765131   -0.986822    2.213072
H     -1.515802   -0.260310    1.990447
H     -0.547570   -2.176837   -0.003780
H     -1.586846   -0.326280   -2.041145
H     -2.815827   -1.358635   -1.226435
H     -3.220932    0.996130   -0.007038
H     -0.807370    1.849780    0.874584
H     -0.814471    1.833472   -0.901562


