%nprocshared=8
%mem=4GB
%chk= 0.chk
# freq b3lyp/6-31g(d)

good luck!

0 1
O      1.211314   -0.000000   -0.000000
C      0.000000    0.000000    0.000000
C     -0.933633   -1.208890   -0.013702
C     -2.136434   -0.657504    0.786177
C     -1.503352   -1.264969   -1.473852
C     -2.125531   -2.622125   -1.817787
C     -2.530830   -0.076255   -1.497240
C     -2.416672    0.837154   -2.719518
C     -2.323951    0.591278   -0.108659
C     -0.922770    1.233777   -0.013702
H     -0.455243   -2.130436    0.323759
H     -3.003851   -1.325973    0.779675
H     -1.890144   -0.417501    1.827281
H     -0.694467   -1.074035   -2.191425
H     -2.592840   -2.593674   -2.809870
H     -1.369125   -3.415285   -1.827189
H     -2.900741   -2.904426   -1.095289
H     -3.544257   -0.502438   -1.496029
H     -2.621313    0.278584   -3.640778
H     -1.415099    1.270603   -2.819558
H     -3.136534    1.663123   -2.667950
H     -3.138935    1.263573    0.176054
H     -0.800202    1.779961    0.931116
H     -0.655577    1.923778   -0.819686


