%nprocshared=10
%mem=12GB
%chk= 1.chk
# freq b3lyp/6-31g(d)

good luck!

0 1
O      1.217864    0.000000   -0.000000
C      0.000000    0.000000    0.000000
C     -0.823216   -1.281526    0.014074
C     -1.808603   -1.249078   -1.177929
C     -2.774589   -0.037426   -1.034260
C     -2.342473    0.829787    0.167564
C     -2.476305   -0.009479    1.456490
C     -1.627802   -1.309078    1.335888
C     -0.864020    1.277359    0.014074
C     -0.559576    2.212578   -1.199378
C     -1.595850    3.341512   -1.332039
C      0.850768    2.818526   -1.104497
H     -0.140921   -2.133767   -0.054460
H     -1.248016   -1.195159   -2.118541
H     -2.364026   -2.194403   -1.201389
H     -3.804254   -0.379814   -0.874787
H     -2.787067    0.556727   -1.954411
H     -2.990714    1.708469    0.246493
H     -2.148354    0.586540    2.317146
H     -3.531967   -0.250927    1.628599
H     -2.268651   -2.199322    1.334264
H     -0.946284   -1.415599    2.186965
H     -0.578613    1.834178    0.920977
H     -0.603947    1.607569   -2.117298
H     -1.308858    4.019665   -2.144072
H     -1.649137    3.935895   -0.410502
H     -2.602416    2.972622   -1.553077
H      1.615602    2.047286   -1.002137
H      1.067162    3.418541   -1.996664
H      0.924322    3.482057   -0.232244


