%nprocshared=8
%mem=4GB
%chk= 0.chk
# freq b3lyp/6-31g(d)

good luck!

0 1
O      1.216522    0.000000    0.000000
C      0.000000    0.000000    0.000000
C     -0.814230   -1.296564    0.013775
C     -2.252350   -1.093109   -0.519295
C     -3.256068   -0.563614    0.542073
C     -3.108752    0.941435    0.866131
C     -1.685644    1.296716    1.331597
C     -0.832970    1.269501    0.013775
C     -1.903527    1.304900   -1.147704
C     -3.191558    1.763328   -0.432015
C     -2.153646   -0.112617   -1.707306
H     -0.269734   -2.021559   -0.601851
H     -0.813583   -1.700710    1.035797
H     -2.622939   -2.066208   -0.864684
H     -4.275652   -0.734641    0.169717
H     -3.159825   -1.156120    1.462322
H     -3.864809    1.231427    1.605710
H     -1.298873    0.622577    2.104571
H     -1.668738    2.307557    1.754107
H     -0.150296    2.120812   -0.039252
H     -1.593028    1.985228   -1.946852
H     -3.167108    2.837685   -0.208879
H     -4.093403    1.565071   -1.023525
H     -1.341419   -0.424935   -2.377827
H     -3.073954   -0.113112   -2.304704


