%nprocshared=10
%mem=12GB
%chk= 0.chk
# freq b3lyp/6-31g(d)

good luck!

0 1
O      1.217874    0.000000   -0.000000
C      0.000000    0.000000    0.000000
C     -0.820224   -1.289530   -0.014859
C      0.064269   -2.536926   -0.026012
C     -1.814269   -1.255122   -1.202479
C     -2.712233   -0.000000   -1.201790
C     -3.816380   -0.000003   -2.318729
C     -4.717658   -1.244711   -2.161455
C     -3.216570    0.000010   -3.740105
C     -4.717684    1.244684   -2.161441
C     -1.814271    1.255123   -1.202478
C     -0.820224    1.289530   -0.014859
C      0.064270    2.536926   -0.026013
H     -1.421432   -1.281721    0.909509
H     -0.549441   -3.444071    0.010362
H      0.678127   -2.571798   -0.932233
H      0.747010   -2.543787    0.828480
H     -2.416687   -2.168773   -1.164174
H     -1.237155   -1.300883   -2.136851
H     -3.262715   -0.000001   -0.245816
H     -5.564877   -1.190034   -2.855320
H     -4.184013   -2.176150   -2.376224
H     -5.125817   -1.315607   -1.145139
H     -2.599301   -0.886093   -3.925270
H     -2.599315    0.886126   -3.925259
H     -4.018954    0.000008   -4.487750
H     -4.184062    2.176136   -2.376210
H     -5.125837    1.315565   -1.145122
H     -5.564907    1.189991   -2.855301
H     -2.416689    2.168773   -1.164170
H     -1.237158    1.300886   -2.136851
H     -1.421431    1.281722    0.909510
H      0.678127    2.571797   -0.932234
H     -0.549440    3.444071    0.010362
H      0.747011    2.543787    0.828479


