%nprocshared=10
%mem=12GB
%chk= 2.chk
# freq b3lyp/6-31g(d)

good luck!

0 1
O      1.213190   -0.000000    0.000000
C      0.000000    0.000000    0.000000
C     -0.805602   -1.295679    0.061458
O     -2.137208   -1.162297   -0.416499
C     -2.769910   -0.000000    0.078570
C     -4.221537   -0.000001   -0.344801
C     -4.905292   -1.208792   -0.513444
C     -6.258615   -1.207095   -0.852385
C     -6.938904   -0.000000   -1.021868
C     -6.258612    1.207094   -0.852396
C     -4.905289    1.208791   -0.513454
O     -2.137209    1.162298   -0.416498
C     -0.805602    1.295679    0.061458
H     -0.309735   -2.061533   -0.539680
H     -0.799424   -1.633180    1.114163
H     -2.685443   -0.000001    1.184658
H     -4.371403   -2.144816   -0.390337
H     -6.780576   -2.150747   -0.987078
H     -7.993076   -0.000000   -1.286164
H     -6.780571    2.150746   -0.987097
H     -4.371398    2.144815   -0.390355
H     -0.309735    2.061533   -0.539681
H     -0.799423    1.633181    1.114163


