%nprocshared=10
%mem=12GB
%chk= 2.chk
# freq b3lyp/6-31g(d)

good luck!

0 1
O      1.207256    0.000000    0.000000
C      0.000000    0.000000    0.000000
C     -1.014531   -1.148460   -0.002776
C     -1.801723   -0.777766   -1.295481
C     -3.167004   -1.444977   -1.430541
O     -2.968628   -2.847352   -1.364364
C     -4.162907   -3.575880   -1.545795
C     -1.783448    0.812599   -1.300396
C     -3.117095    1.542398   -1.448040
O     -3.594296    1.345462   -2.769337
C     -4.812541    2.016245   -3.015683
C     -1.002612    1.165653   -0.002776
C     -1.821409    0.798263    1.260720
C     -1.823023   -0.774130    1.262185
H     -0.596947   -2.154301   -0.006416
H     -1.210991   -1.127533   -2.149692
H     -3.621694   -1.157741   -2.389867
H     -3.863540   -1.128615   -0.635838
H     -4.616674   -3.377762   -2.530463
H     -4.909527   -3.339295   -0.769493
H     -3.907998   -4.637018   -1.479346
H     -1.180000    1.140491   -2.155025
H     -3.869526    1.195400   -0.722135
H     -2.962923    2.619562   -1.260168
H     -5.091601    1.808484   -4.051859
H     -4.709930    3.105399   -2.884069
H     -5.616785    1.662409   -2.350261
H     -0.560331    2.163450    0.002340
H     -1.324405    1.190046    2.154408
H     -2.831314    1.218235    1.248678
H     -2.831489   -1.195638    1.251523
H     -1.323744   -1.163595    2.155499


