%nprocshared=8
%mem=4GB
%chk= 0.chk
# freq b3lyp/6-31g(d)

good luck!

0 1
O      1.215620    0.000000   -0.000000
C      0.000000    0.000000    0.000000
C     -0.784338   -1.328407    0.009865
C     -2.033599   -1.398502   -0.914133
C     -2.799210   -0.104046   -0.697407
C     -3.928446    0.563021   -1.529903
C     -3.255811    1.932919   -1.181364
C     -1.939073    1.132841   -0.990850
C     -0.803372    1.314164    0.009865
H     -0.066614   -2.125369   -0.205020
H     -1.119804   -1.472522    1.049347
H     -1.720121   -1.484630   -1.963068
H     -2.615975   -2.297445   -0.676160
H     -3.109034   -0.055926    0.358991
H     -4.963661    0.399641   -1.215500
H     -3.840657    0.340211   -2.599438
H     -3.636647    2.331836   -0.234096
H     -3.271512    2.725773   -1.935131
H     -1.497865    1.001029   -1.991236
H     -1.208509    1.473258    1.020866
H     -0.115229    2.135571   -0.213105


