%nprocshared=10
%mem=12GB
%chk= 0.chk
# freq b3lyp/6-31g(d)

good luck!

0 1
O      1.216655    0.000000   -0.000000
C      0.000000    0.000000    0.000000
C     -0.814624   -1.287860    0.004846
C     -1.899571   -1.292175    1.116509
C     -2.725802   -2.567449    1.100282
C     -2.702810   -3.448774    2.183177
C     -3.454187   -4.628435    2.196425
C     -4.257102   -4.945665    1.096964
O     -5.033038   -6.064903    0.992753
C     -5.026923   -6.985823    2.071140
C     -4.294532   -4.073441   -0.001558
C     -3.539976   -2.908344    0.005788
C     -2.760682   -0.013146    1.027199
C     -1.901331    1.256619    1.104136
C     -0.819470    1.283846    0.004846
H     -0.131930   -2.135689    0.110918
H     -1.308614   -1.378915   -0.974272
H     -1.371395   -1.259223    2.080524
H     -2.082164   -3.216469    3.046080
H     -3.402808   -5.281706    3.060069
H     -5.700766   -7.793562    1.779485
H     -5.393633   -6.525474    2.998408
H     -4.023621   -7.396608    2.246463
H     -4.922201   -4.333544   -0.848368
H     -3.587678   -2.252393   -0.860398
H     -3.327016   -0.017250    0.084674
H     -3.502349   -0.017323    1.834906
H     -2.532577    2.149538    1.022745
H     -1.414747    1.307413    2.088083
H     -1.309917    1.372637   -0.976957
H     -0.139260    2.133223    0.115779


