%nprocshared=10
%mem=12GB
%chk= 0.chk
# freq b3lyp/6-31g(d)

good luck!

0 1
C     -9.157222    1.808118    4.150741
C     -9.245216    0.273237    4.138150
C     -7.875725   -0.433985    3.997505
C     -8.013873   -1.993638    3.974481
C     -6.845008   -2.544927    3.112291
C     -5.957679   -1.313783    2.874465
C     -4.889654   -1.357921    1.772513
C     -3.972765   -2.587591    1.914269
C     -2.784926   -2.565320    0.941039
C     -1.965689   -1.258110    1.027684
C     -0.813253   -1.288041   -0.011481
C      0.000000    0.000000    0.000000
C     -0.805432    1.294220   -0.011481
C     -2.063272    1.280655    0.886895
O      1.217237    0.000000    0.000000
C     -1.275762   -1.199183    2.417627
C     -2.910837   -0.012733    0.754970
C     -4.079130   -0.027464    1.805356
C     -5.023178    1.196035    1.742243
C     -6.135411    1.166861    2.813015
C     -6.964761   -0.132152    2.758535
C     -7.798943   -0.185346    1.458917
C     -3.501806   -0.043508   -0.679598
C     -9.967122   -0.198174    5.415010
H    -10.142184    2.246117    4.353080
H     -8.473534    2.158995    4.934545
H     -8.809172    2.215531    3.197478
H     -9.869303   -0.022084    3.281500
H     -7.285102   -0.159558    4.886561
H     -7.989336   -2.402013    4.989774
H     -8.982204   -2.285063    3.549721
H     -7.213079   -2.950602    2.161428
H     -6.307173   -3.356866    3.612394
H     -5.413040   -1.139927    3.818947
H     -5.398151   -1.436813    0.801230
H     -4.556659   -3.502397    1.753304
H     -3.603931   -2.645105    2.947911
H     -2.123176   -3.418307    1.144375
H     -3.149205   -2.706116   -0.084831
H     -1.210403   -1.438874   -1.024418
H     -0.130025   -2.120384    0.188970
H     -1.106678    1.462673   -1.056163
H     -0.133042    2.116109    0.253381
H     -1.761936    1.419535    1.932043
H     -2.672288    2.154213    0.630092
H     -0.686697   -2.112522    2.563039
H     -0.579187   -0.359396    2.504568
H     -1.977034   -1.129815    3.251665
H     -3.608077    0.020163    2.798133
H     -5.484401    1.271397    0.750301
H     -4.445839    2.117888    1.877283
H     -6.764183    2.054870    2.685497
H     -5.677069    1.251837    3.809545
H     -8.417603   -1.087035    1.401756
H     -8.474189    0.675710    1.400795
H     -7.175380   -0.164850    0.560644
H     -4.137822   -0.912852   -0.861700
H     -4.112763    0.848132   -0.853587
H     -2.729632   -0.046280   -1.453060
H     -9.383334    0.056922    6.309620
H    -10.134008   -1.279829    5.423315
H    -10.944793    0.289151    5.509397


