%nprocshared=8
%mem=4GB
%chk= 0.chk
# freq b3lyp/6-31g(d)

good luck!

0 1
C     -4.334142   -0.022647   -1.063777
C     -2.802807   -0.021001   -0.930513
C     -2.201659   -0.020810   -2.340397
C     -2.310719    1.041544    0.120204
C     -2.546444   -0.030167    1.223065
C     -2.304894   -1.087097    0.110622
C     -0.793931   -1.316767   -0.004597
C      0.000000    0.000000    0.000000
C     -0.802398    1.320522   -0.004597
C     -0.268462    2.280368    1.070795
O      1.215761    0.000000   -0.000000
H     -4.848300   -0.021486   -0.097923
H     -4.670957   -0.908759   -1.616396
H     -4.672241    0.861473   -1.618714
H     -1.108669   -0.052364   -2.360476
H     -2.511328    0.877610   -2.889393
H     -2.561958   -0.888696   -2.907363
H     -2.878786    1.978210    0.181370
H     -3.566253   -0.032426    1.612971
H     -1.853197   -0.038797    2.072791
H     -2.854877   -2.034338    0.162179
H     -0.521590   -1.869790   -0.912977
H     -0.425783   -1.918325    0.837109
H     -0.597174    1.782131   -0.981967
H     -0.729917    3.268414    0.965347
H     -0.485250    1.913681    2.080737
H      0.815356    2.385719    0.973519


