%nprocshared=10
%mem=12GB
%chk= 2.chk
# freq b3lyp/6-31g(d)

good luck!

0 1
O      1.216484    0.000000    0.000000
C      0.000000    0.000000    0.000000
C     -0.848721   -1.267591    0.003075
C     -1.734873   -1.259992    1.273404
C     -1.751396   -1.256870   -1.254123
C     -2.641365    0.000293   -1.233341
C     -1.750931    1.257145   -1.254273
C     -0.848460    1.267834    0.003075
C     -1.734691    1.260703    1.273420
C     -2.646861    0.000455    1.319457
C     -3.484117   -0.000756    2.603532
C     -2.861130   -0.002024    3.862020
C     -3.578225   -0.001932    5.052659
C     -4.990938   -0.010591    5.053988
N     -5.720356   -0.047751    6.241169
C     -5.034219    0.207649    7.496365
C     -7.149606    0.208461    6.193935
C     -5.623419    0.006472    3.794247
C     -4.884122    0.005711    2.612404
C     -3.516005    0.000734    0.036764
H     -0.178886   -2.133737    0.002602
H     -2.357602   -2.164309    1.291170
H     -1.099427   -1.298995    2.166132
H     -2.369426   -2.164936   -1.265024
H     -1.136521   -1.275815   -2.163573
H     -3.292709    0.000380   -2.117074
H     -2.368667    2.165426   -1.265538
H     -1.135855    1.275664   -2.163606
H     -0.178370    2.133787    0.002479
H     -2.357339    2.165115    1.290736
H     -1.099241    1.299926    2.166116
H     -1.775946    0.002412    3.928679
H     -3.027617    0.005496    5.985840
H     -4.246208   -0.534231    7.668621
H     -5.749275    0.120112    8.317265
H     -4.574747    1.209021    7.543146
H     -7.397245    1.210215    5.805109
H     -7.657944   -0.532513    5.566579
H     -7.561157    0.120430    7.201737
H     -6.704490    0.020513    3.722518
H     -5.436445    0.015985    1.678644
H     -4.170281   -0.881286    0.030189
H     -4.169095    0.883617    0.029476


