%nprocshared=10
%mem=12GB
%chk= 1.chk
# freq b3lyp/6-31g(d)

good luck!

0 1
O      1.215853   -0.000000   -0.000000
C      0.000000    0.000000    0.000000
C     -0.849966   -1.266053   -0.000463
C     -1.752636   -1.256451    1.257609
C     -1.730764   -1.262135   -1.273585
C     -2.626667   -0.009341   -1.270244
C     -1.742133    1.253160   -1.268556
C     -0.852239    1.263828   -0.000463
C     -1.749326    1.251338    1.261585
C     -2.667944   -0.005954    1.283597
C     -3.580091    0.035762    2.515400
C     -3.574746   -0.963932    3.499781
C     -4.416867   -0.898537    4.609514
C     -5.295429    0.177896    4.766485
C     -6.217717    0.305987    5.927655
O     -6.991988    1.228555    6.094620
O     -6.105159   -0.727771    6.795188
C     -6.970099   -0.662379    7.938538
C     -5.314321    1.184964    3.792281
C     -4.471874    1.110795    2.690579
C     -3.524230   -0.016030   -0.016749
H     -0.181812   -2.132945    0.015227
H     -1.124175   -1.284076    2.156941
H     -2.360267   -2.171048    1.261081
H     -1.098002   -1.279973   -2.170394
H     -2.344211   -2.173054   -1.294990
H     -3.260449   -0.009981   -2.166446
H     -1.114891    1.281380   -2.168938
H     -2.364685    2.158152   -1.283276
H     -0.187034    2.133206    0.008517
H     -2.353911    2.166255    1.276154
H     -1.130130    1.268614    2.167631
H     -2.907123   -1.813480    3.413130
H     -4.392027   -1.684691    5.355974
H     -8.018334   -0.652201    7.627938
H     -6.751223   -1.557474    8.521710
H     -6.766296    0.237973    8.524306
H     -5.997468    2.018704    3.917767
H     -4.510870    1.907231    1.953035
H     -4.189222    0.856012   -0.035065
H     -4.170440   -0.903970   -0.017111


