%nprocshared=8
%mem=4GB
%chk= 0.chk
# freq b3lyp/6-31g(d)

good luck!

0 1
O      1.210896   -0.000000    0.000000
C      0.000000    0.000000    0.000000
C     -0.922252   -1.235163    0.007261
C     -2.318703   -0.608614   -0.121807
C     -2.087507    0.707975   -0.921637
C     -0.940253    1.198667    0.007261
C     -1.625930    1.123236    1.418439
C     -2.805483    0.141998    1.151500
C     -3.973800    0.977160    0.594449
C     -3.392880    1.512506   -0.753398
H     -0.767932   -1.834827    0.912254
H     -0.674677   -1.875821   -0.848207
H     -3.076910   -1.278818   -0.539137
H     -1.768543    0.577419   -1.961211
H     -0.454099    2.147052   -0.227845
H     -1.981219    2.107325    1.742392
H     -0.932500    0.765151    2.187329
H     -3.067035   -0.488319    2.006705
H     -4.276127    1.777932    1.278307
H     -4.853381    0.346356    0.418176
H     -3.206271    2.592120   -0.730651
H     -4.076315    1.325300   -1.588525


