%nprocshared=8
%mem=4GB
%chk= 0.chk
# freq b3lyp/6-31g(d)

good luck!

0 1
O      1.215117   -0.000000   -0.000000
C      0.000000    0.000000    0.000000
C     -0.839267   -1.283200   -0.025512
C     -2.241272   -1.050917    0.586966
C     -2.069748   -0.877697    2.115082
C     -1.291204    0.425472    2.435249
C     -1.606172    1.500264    1.364937
C     -0.858979    1.258238   -0.025512
C     -2.010950    0.937391   -1.016491
C     -2.970731    0.212609   -0.052662
C     -3.099918    1.332413    1.001674
H     -0.913037   -1.610061   -1.071704
H     -0.294982   -2.072719    0.503043
H     -2.851113   -1.941650    0.398756
H     -1.551240   -1.749419    2.531650
H     -3.055194   -0.854966    2.593452
H     -0.212202    0.238548    2.489709
H     -1.587226    0.799561    3.422966
H     -1.355690    2.494917    1.745216
H     -0.234242    2.109973   -0.305056
H     -2.471339    1.850253   -1.409538
H     -1.684235    0.345695   -1.877648
H     -3.922450   -0.074200   -0.511647
H     -3.525117    2.233516    0.545479
H     -3.719487    1.084298    1.868693


