%nprocshared=8
%mem=4GB
%chk= 0.chk
# freq b3lyp/6-31g(d)

good luck!

0 1
O      1.211933   -0.000000   -0.000000
C      0.000000    0.000000    0.000000
C     -0.933351   -1.208595   -0.008242
C     -2.137155   -0.653474    0.785369
C     -1.535312   -1.306691   -1.452100
C     -0.494375   -1.435856   -2.568595
C     -2.517565   -0.064032   -1.509021
C     -2.376698    0.877550   -2.708896
C     -2.320699    0.593390   -0.113341
C     -0.919952    1.234530   -0.008242
H     -0.453877   -2.126144    0.338811
H     -3.001548   -1.326828    0.772672
H     -1.898478   -0.408067    1.826992
H     -2.144189   -2.219842   -1.467131
H      0.183905   -0.578175   -2.617787
H      0.124234   -2.326076   -2.406355
H     -0.976104   -1.541285   -3.546972
H     -3.543786   -0.453704   -1.531779
H     -1.368350    1.289924   -2.814713
H     -3.071143    1.721176   -2.613449
H     -2.616517    0.361140   -3.645121
H     -3.136428    1.266640    0.167135
H     -0.647959    1.930760   -0.807000
H     -0.801095    1.772481    0.941977


