%nprocshared=10
%mem=12GB
%chk= 1.chk
# freq b3lyp/6-31g(d)

good luck!

0 1
O      1.215392    0.000000   -0.000000
C      0.000000    0.000000    0.000000
C     -0.849655   -1.271881    0.001906
C     -2.308637   -0.885939    0.311446
C     -2.309949   -0.065055    1.632518
C     -3.692518   -0.031557    2.317266
C     -3.635516    0.248570    3.825595
C     -1.616173    1.334505    1.368667
C     -2.544784    2.567895    1.431818
C     -1.815435    3.906855    1.259198
C     -0.861469    1.255313    0.001906
C     -1.874698    1.116028   -1.162186
C     -2.861043   -0.046322   -0.859187
H     -0.757353   -1.756744   -0.980649
H     -0.437483   -1.972879    0.737611
H     -2.914313   -1.790670    0.443910
H     -1.652041   -0.614739    2.322464
H     -4.357691    0.690434    1.828951
H     -4.163473   -1.013695    2.173652
H     -3.173454    1.215322    4.054007
H     -3.049732   -0.522337    4.341282
H     -4.640118    0.250968    4.263956
H     -0.855626    1.483864    2.146643
H     -3.344240    2.492229    0.684164
H     -3.048473    2.577406    2.404342
H     -1.398616    4.027456    0.253578
H     -0.988416    4.002047    1.973811
H     -2.501090    4.744166    1.431626
H     -0.207674    2.120074   -0.135603
H     -2.408401    2.060466   -1.309647
H     -1.327669    0.929473   -2.094163
H     -3.853955    0.340702   -0.601664
H     -2.995982   -0.678520   -1.744852


