%nprocshared=10
%mem=12GB
%chk= 1.chk
# freq b3lyp/6-31g(d)

good luck!

0 1
C     -3.592262    4.904979   -1.592325
C     -2.371224    3.966722   -1.634080
C     -1.251870    4.560491   -0.763601
C     -2.780242    2.529145   -1.234716
C     -3.910593    1.954037   -2.151059
C     -3.723417    0.412496   -2.198938
C     -2.631516    0.140355   -1.152142
C     -1.897328   -1.206884   -1.184695
C     -2.876664   -2.391338   -1.107635
C     -2.165380   -3.744190   -0.991898
C     -1.185357   -3.757280    0.188675
C     -0.578138   -5.148320    0.440771
C      0.279015   -5.166141    1.714579
C      1.345319   -4.062584    1.688508
C      0.739353   -2.680436    1.392380
C     -0.100128   -2.633033    0.083998
C      0.824612   -2.828575   -1.140343
C     -0.863799   -1.272247   -0.008533
C      0.000000    0.000000    0.000000
C     -0.765414    1.325906   -0.008533
C     -1.707648    1.388774   -1.232780
C     -0.862136    1.421624   -2.524960
O      1.219289   -0.000000   -0.000000
H     -4.392055    4.577906   -2.263581
H     -4.008802    4.959255   -0.577908
H     -3.308149    5.921915   -1.886128
H     -2.013495    3.940725   -2.674154
H     -1.517352    4.525470    0.301043
H     -0.300225    4.036738   -0.888207
H     -1.082119    5.611800   -1.025260
H     -3.172699    2.583541   -0.206284
H     -3.839812    2.384834   -3.157107
H     -4.899112    2.226922   -1.768831
H     -3.397931    0.085466   -3.194289
H     -4.650807   -0.125793   -1.979684
H     -3.123126    0.200481   -0.165647
H     -1.350661   -1.287002   -2.134137
H     -3.533652   -2.381630   -1.986391
H     -3.528172   -2.253407   -0.230488
H     -2.909551   -4.541084   -0.858550
H     -1.637856   -3.974173   -1.927665
H     -1.778601   -3.515089    1.088320
H     -1.391057   -5.882568    0.525112
H      0.025258   -5.461904   -0.422272
H      0.746859   -6.150189    1.848022
H     -0.376484   -5.012342    2.584970
H      2.106400   -4.305663    0.935007
H      1.873864   -4.026364    2.650002
H      0.083261   -2.401967    2.232511
H      1.530800   -1.928473    1.347909
H      1.326952   -3.799708   -1.116279
H      1.593293   -2.052999   -1.153205
H      0.278644   -2.777512   -2.087809
H     -1.472058   -1.190266    0.910587
H     -1.363694    1.399563    0.911727
H     -0.020223    2.123679    0.006302
H     -1.483900    1.424894   -3.426139
H     -0.183342    0.565624   -2.594312
H     -0.237549    2.320587   -2.552793


