%nprocshared=10
%mem=12GB
%chk= 0.chk
# freq b3lyp/6-31g(d)

good luck!

0 1
C     -3.182516    4.933581   -0.605514
C     -2.301940    3.966022   -1.418362
C     -2.228343    4.454786   -2.876310
C     -2.778262    2.499399   -1.215797
C     -3.887737    1.967910   -2.174409
C     -3.741832    0.414425   -2.189294
C     -2.641588    0.123555   -1.150108
C     -1.905581   -1.221778   -1.184292
C     -2.879814   -2.409084   -1.096320
C     -2.162463   -3.758439   -0.979386
C     -1.177416   -3.762908    0.197130
C     -0.564169   -5.151035    0.451366
C      0.297305   -5.162572    1.722197
C      1.358815   -4.054780    1.689931
C      0.747020   -2.675708    1.391212
C     -0.096702   -2.634554    0.085117
C      0.825073   -2.831146   -1.141217
C     -0.864941   -1.275726   -0.010366
C      0.000000    0.000000    0.000000
C     -0.771901    1.322383   -0.010366
C     -1.711988    1.362128   -1.232978
C     -0.854681    1.381918   -2.516585
O      1.218980    0.000000   -0.000000
H     -2.839623    5.969178   -0.717168
H     -4.226509    4.893597   -0.942564
H     -3.167394    4.688826    0.463140
H     -1.285920    4.030564   -1.000170
H     -1.650139    3.788181   -3.522016
H     -1.755366    5.443383   -2.913691
H     -3.228618    4.558920   -3.313444
H     -3.198204    2.462709   -0.199367
H     -3.763756    2.368362   -3.184612
H     -4.881972    2.280458   -1.837903
H     -3.442232    0.060791   -3.183686
H     -4.680489   -0.093260   -1.946242
H     -3.125762    0.181317   -0.160277
H     -1.363462   -1.304899   -2.135835
H     -3.542011   -2.404256   -1.971412
H     -3.526785   -2.270160   -0.216049
H     -1.638107   -3.989429   -1.916666
H     -2.902293   -4.558256   -0.839691
H     -1.768380   -3.520304    1.098080
H      0.037293   -5.465104   -0.412810
H     -1.374171   -5.887883    0.540692
H     -0.355813   -5.009353    2.594431
H      0.769623   -6.144407    1.856404
H      2.118967   -4.297251    0.935305
H      1.889688   -4.013464    2.649935
H      0.092945   -2.396319    2.232574
H      1.536318   -1.921878    1.342066
H      0.276132   -2.785741   -2.087222
H      1.331418   -3.800150   -1.115138
H      1.591011   -2.052921   -1.159228
H     -1.471228   -1.193541    0.909963
H     -0.038617    2.135306   -0.009620
H     -1.368982    1.396322    0.910539
H     -0.233062    2.282966   -2.545043
H     -1.464246    1.366286   -3.425449
H     -0.169850    0.529185   -2.564177


