%nprocshared=10
%mem=12GB
%chk= 1.chk
# freq b3lyp/6-31g(d)

good luck!

0 1
O      1.206128    0.000000   -0.000000
C      0.000000    0.000000    0.000000
C     -1.062508   -1.106337    0.087487
C     -2.085380    0.001227    0.482672
C     -1.060518    1.115213    0.087487
C     -0.795594    2.283256    1.038071
C      0.315317    3.227519    0.530757
C      0.603664    4.357671    1.495657
C     -0.140759    5.544773    1.458596
C      0.099543    6.572810    2.371036
C      1.093870    6.430094    3.340684
C      1.844638    5.254139    3.388031
C      1.600227    4.229320    2.472742
H     -0.860102   -1.907723    0.805112
H     -1.260926   -1.558828   -0.891569
H     -2.298709    0.004434    1.556046
H     -3.030732    0.003602   -0.064830
H     -1.271320    1.492854   -0.924386
H     -1.724957    2.850595    1.183742
H     -0.514429    1.892854    2.025502
H      1.221596    2.637203    0.357447
H      0.013510    3.638434   -0.442424
H     -0.913041    5.666661    0.701378
H     -0.486188    7.487308    2.321436
H      1.285456    7.230878    4.050030
H      2.625645    5.135853    4.134880
H      2.193355    3.318022    2.511040


