%nprocshared=8
%mem=8GB
%chk= 1.chk
# freq b3lyp/6-31g(d)

good luck!

0 1
O      1.215018    0.000000    0.000000
C      0.000000    0.000000    0.000000
C     -0.804264   -1.297586   -0.008409
C     -1.939398   -1.286674    1.039595
C     -2.781912   -2.547154    0.930619
F     -2.032752   -3.661659    1.081304
F     -3.746947   -2.581285    1.877427
F     -3.398432   -2.638346   -0.272098
C     -2.804282   -0.018839    0.924021
C     -1.944379    1.245731    1.048561
C     -0.822718    1.280808   -0.008409
H     -0.119078   -2.134174    0.146509
H     -1.251747   -1.409229   -1.006924
H     -1.494047   -1.320538    2.042870
H     -3.321580   -0.025192   -0.044703
H     -3.578286   -0.029831    1.698480
H     -2.573483    2.137538    0.949842
H     -1.498606    1.287581    2.051786
H     -0.147245    2.128921    0.134306
H     -1.275146    1.378641   -1.007418


