%nprocshared=10
%mem=12GB
%chk=0.chk
# opt freq b3lyp/6-31g(d)

good luck

0 1
 O                 -2.95654600   -1.89171000    0.00000000
 C                 -2.12588400   -1.00265700    0.00000000
 C                 -1.54204000   -0.38278800    1.26310100
 C                 -0.00671000   -0.59663900    1.25272300
 C                 -1.85602700    1.13194900    1.25652500
 C                 -1.23867000    1.77204800    0.00000000
 C                 -1.85602600    1.13194800   -1.25652500
 C                 -1.54203900   -0.38278800   -1.26310100
 C                 -0.00671000   -0.59664200   -1.25272100
 C                  0.65935000    0.04386400    0.00000000
 C                  2.23659200   -0.17797600    0.00000000
 C                  2.90198600    0.45499300   -1.24541100
 C                  2.60345800   -1.68125900   -0.00002200
 C                  2.90198300    0.45495500    1.24543200
 C                  0.28925700    1.55566100   -0.00000200
 H                 -1.99037700   -0.87593700    2.13187700
 H                  0.40399800   -0.16193600    2.17185600
 H                  0.20057200   -1.67215500    1.28992400
 H                 -2.94160300    1.29507300    1.27807000
 H                 -1.44383200    1.59281400    2.16463300
 H                 -1.44599700    2.85028500   -0.00000100
 H                 -1.44383100    1.59281200   -2.16463400
 H                 -2.94160300    1.29507200   -1.27807000
 H                 -1.99037600   -0.87593900   -2.13187800
 H                  0.40400000   -0.16194400   -2.17185500
 H                  0.20057000   -1.67215900   -1.28991700
 H                  2.74979000    1.53794100   -1.29592100
 H                  3.98426300    0.28358400   -1.20908700
 H                  2.53897400    0.01737500   -2.18099900
 H                  2.22811900   -2.20372300   -0.88578300
 H                  3.69425700   -1.79158100   -0.00001000
 H                  2.22809400   -2.20375600    0.88570800
 H                  2.74976100    1.53789600    1.29599200
 H                  2.53898800    0.01728700    2.18100500
 H                  3.98426300    0.28357200    1.20909300
 H                  0.71659900    2.05054500   -0.88033300
 H                  0.71660100    2.05054800    0.88032700

