%nprocshared=10
%mem=12GB
%chk= 0.chk
# freq b3lyp/6-31g(d)

good luck!

0 1
C      2.125848   -8.364811    2.168375
C      2.805191   -7.198571    1.427528
C      4.126173   -7.696728    0.811406
C      1.944062   -6.475685    0.352302
C      0.984813   -7.358369   -0.505801
C     -0.145525   -6.407467   -1.009779
C      0.302772   -5.009940   -0.541925
C     -0.706368   -3.854541   -0.480984
C     -1.466269   -3.677386   -1.805200
C     -2.383026   -2.450353   -1.781937
C     -1.591756   -1.177510   -1.452824
C     -0.846465   -1.290624   -0.066301
C     -1.835863   -1.318837    1.126886
C      0.064344   -2.560041   -0.078497
C      0.860663   -2.771109    1.233009
C      1.800420   -3.994029    1.177076
C      1.045302   -5.279450    0.795128
C      0.088882   -5.687008    1.937306
C     -2.435822    0.102992   -1.582115
C     -1.591048    1.368689   -1.378727
C     -0.778359    1.310419   -0.066301
C      0.000000    0.000000    0.000000
O      1.218639    0.000000   -0.000000
H      1.161564   -8.090318    2.604355
H      2.770426   -8.713726    2.984291
H      1.959742   -9.219253    1.501340
H      3.070089   -6.442097    2.181736
H      3.937983   -8.429457    0.015846
H      4.756893   -8.183755    1.565047
H      4.701422   -6.871762    0.375072
H      2.665964   -6.027126   -0.346383
H      0.558042   -8.173875    0.085504
H      1.520048   -7.828656   -1.337835
H     -1.110962   -6.679714   -0.564621
H     -0.276227   -6.458463   -2.095695
H      1.083991   -4.685650   -1.250259
H     -1.453849   -4.081754    0.293896
H     -0.741669   -3.568051   -2.626923
H     -2.049671   -4.580374   -2.024434
H     -2.873133   -2.326723   -2.757155
H     -3.189873   -2.594801   -1.049451
H     -0.792733   -1.103078   -2.209829
H     -2.356297   -2.279274    1.183759
H     -2.600179   -0.541048    1.059909
H     -1.309777   -1.176811    2.076425
H      0.809708   -2.381394   -0.868335
H      1.452475   -1.875653    1.437068
H      0.168376   -2.890146    2.075507
H      2.586489   -3.806011    0.431043
H      2.309135   -4.104510    2.144875
H      0.653202   -5.863029    2.860056
H     -0.467053   -6.602216    1.710236
H     -0.648140   -4.909930    2.158585
H     -2.893838    0.124779   -2.579622
H     -3.270002    0.085785   -0.868156
H     -0.889527    1.471286   -2.217759
H     -2.223134    2.264895   -1.387068
H     -0.060268    2.132887   -0.003872
H     -1.458523    1.387003    0.791494


