%nprocshared=8
%mem=8GB
%chk= 0.chk
# freq b3lyp/6-31g(d)

good luck!

0 1
O      1.207901    0.000000    0.000000
C      0.000000    0.000000    0.000000
C     -1.006020   -1.156256   -0.014388
C     -1.769787   -0.799129   -1.326852
C     -3.126507   -1.495492   -1.517789
C     -3.022087   -3.025282   -1.544418
C     -1.769786    0.799129   -1.326853
C     -3.126504    1.495494   -1.517792
C     -3.022081    3.025284   -1.544422
C     -1.006020    1.156256   -0.014388
C     -1.845132    0.786075    1.232127
C     -1.845132   -0.786075    1.232127
H     -0.563415   -2.153034    0.001828
H     -1.134355   -1.126372   -2.161292
H     -3.837004   -1.193591   -0.738674
H     -3.561636   -1.154666   -2.465992
H     -2.671612   -3.425097   -0.586154
H     -2.321135   -3.361007   -2.318704
H     -3.995850   -3.480807   -1.756724
H     -1.134352    1.126370   -2.161292
H     -3.837003    1.193595   -0.738677
H     -3.561633    1.154668   -2.465995
H     -3.995843    3.480810   -1.756730
H     -2.671607    3.425098   -0.586157
H     -2.321127    3.361007   -2.318707
H     -0.563415    2.153034    0.001828
H     -2.855599    1.202686    1.196868
H     -1.368727    1.177161    2.137347
H     -2.855598   -1.202687    1.196870
H     -1.368726   -1.177160    2.137348


