%nprocshared=10
%mem=12GB
%chk= 2.chk
# freq b3lyp/6-31g(d)

good luck!

0 1
O      1.217989   -0.000000   -0.000000
C      0.000000    0.000000    0.000000
C     -0.835937   -1.280432    0.017029
C      0.013418   -2.562396   -0.052616
C      0.699630   -2.849558   -1.396797
C      1.578006   -4.103941   -1.339787
C     -1.965151   -1.206141   -1.041632
C     -2.846589    0.053092   -0.893759
C     -4.105744    0.070290   -1.831037
C     -3.726611    0.055027   -3.326278
C     -4.995467   -1.156586   -1.531951
C     -4.950069    1.332210   -1.546445
C     -1.942577    1.297545   -1.022633
C     -0.804260    1.292727    0.017029
H     -1.335706   -1.269969    1.001657
H      0.783621   -2.500290    0.725845
H     -0.630425   -3.414256    0.210078
H      1.313084   -1.986818   -1.678516
H     -0.053699   -2.976827   -2.185542
H      0.990395   -4.991053   -1.071499
H      2.055121   -4.301035   -2.306627
H      2.372696   -3.994605   -0.592145
H     -1.519571   -1.220598   -2.044217
H     -2.564864   -2.118512   -0.954450
H     -3.245977    0.050755    0.134762
H     -4.631795    0.075503   -3.945185
H     -3.121914    0.925235   -3.605210
H     -3.166616   -0.846583   -3.598327
H     -4.515629   -2.099300   -1.813853
H     -5.934407   -1.090907   -2.094338
H     -5.250929   -1.213044   -0.466116
H     -5.894254    1.290595   -2.102296
H     -4.439018    2.252682   -1.846646
H     -5.196740    1.414824   -0.480213
H     -1.502728    1.331615   -2.028464
H     -2.518077    2.220644   -0.902214
H     -0.114804    2.129490   -0.130440
H     -1.238678    1.397562    1.023346


