%nprocshared=8
%mem=8GB
%chk= 0.chk
# freq b3lyp/6-31g(d)

good luck!

0 1
O      1.217900   -0.000000    0.000000
C      0.000000    0.000000    0.000000
C     -0.834954   -1.284663   -0.030947
C      0.018116   -2.560115    0.000520
C      0.667339   -2.845925    1.363103
C      1.429488   -4.179818    1.430309
C      2.666116   -4.250150    0.526045
C     -1.776257   -1.222589   -1.263840
C     -2.632232    0.051601   -1.287092
C     -1.761299    1.314363   -1.243335
C     -0.805362    1.293362   -0.030947
H     -1.481200   -1.258378    0.862811
H     -0.621254   -3.411258   -0.276146
H      0.791183   -2.479238   -0.772324
H     -0.117737   -2.852049    2.133958
H      1.348989   -2.024626    1.614306
H      1.739995   -4.350877    2.470020
H      0.744656   -5.003277    1.179293
H      2.402402   -4.171708   -0.534570
H      3.365475   -3.436108    0.752519
H      3.199613   -5.198053    0.662533
H     -1.167460   -1.274030   -2.178337
H     -2.416591   -2.113451   -1.265932
H     -3.264664    0.061546   -2.183595
H     -3.313741    0.047643   -0.423696
H     -2.384831    2.215826   -1.208278
H     -1.166468    1.379473   -2.164879
H     -0.108775    2.136621   -0.045308
H     -1.397786    1.355984    0.894074


