%nprocshared=8
%mem=4GB
%chk= 0.chk
# freq b3lyp/6-31g(d)

good luck!

0 1
O      1.211379    0.000000    0.000000
C      0.000000    0.000000    0.000000
C     -0.895693   -1.242544    0.000879
C     -2.313935   -0.721851    0.319301
C     -3.505176   -1.645403   -0.071737
C     -3.576594   -1.914964   -1.588362
C     -3.357444   -2.992717    0.666010
C     -4.825250   -0.984677    0.377483
C     -2.308458    0.707832   -0.288662
C     -0.896874    1.241993    0.000879
H     -0.842630   -1.679496   -1.006774
H     -0.508450   -1.994844    0.694007
H     -2.370571   -0.598308    1.412738
H     -4.422563   -2.575834   -1.811665
H     -2.673327   -2.409255   -1.963766
H     -3.722401   -0.994566   -2.164570
H     -2.459360   -3.533869    0.347368
H     -4.220607   -3.639420    0.467531
H     -3.294084   -2.846228    1.751651
H     -5.014820   -0.047255   -0.157212
H     -4.812856   -0.762883    1.452094
H     -5.674946   -1.650717    0.185508
H     -3.094853    1.343895    0.127578
H     -2.468468    0.659758   -1.372975
H     -0.527525    1.993642   -0.703581
H     -0.837949    1.688641    1.004058


