%nprocshared=10
%mem=12GB
%chk= 0.chk
# freq b3lyp/6-31g(d)

good luck!

0 1
O      1.216881    0.000000    0.000000
C      0.000000    0.000000    0.000000
C     -0.812723   -1.287096    0.006136
C     -1.851731   -1.282781    1.143003
C     -2.731785   -0.014172    1.099038
C     -3.779748   -0.055639    2.201042
O     -4.977257   -0.117875    2.026272
O     -3.209941   -0.027825    3.429940
C     -4.125727   -0.080162    4.536498
C     -1.865386    1.267979    1.163057
C     -2.707366    2.557336    1.133430
C     -1.833316    3.819783    1.167606
C     -0.801724    3.822642    0.030767
C      0.049868    2.546428    0.045524
C     -0.824611    1.286163    0.006136
H     -0.126592   -2.134661    0.090979
H     -1.332740   -1.369759   -0.959980
H     -2.479495   -2.179198    1.073425
H     -1.338741   -1.327364    2.110861
H     -3.304230   -0.007910    0.162921
H     -4.711070   -1.002863    4.506447
H     -3.504736   -0.048138    5.432131
H     -4.808637    0.773008    4.510532
H     -1.310112    1.245433    2.112430
H     -3.322389    2.560732    0.220919
H     -3.407113    2.565484    1.978680
H     -1.308752    3.869183    2.133013
H     -2.467929    4.713010    1.111491
H     -1.325654    3.901939   -0.933520
H     -0.155224    4.705827    0.106298
H      0.749646    2.531878   -0.796917
H      0.668793    2.519310    0.952116
H     -1.402190    1.282941   -0.935690


