%nprocshared=10
%mem=12GB
%chk= 1.chk
# freq b3lyp/6-31g(d)

good luck!

0 1
O      1.215609   -0.000000   -0.000000
C      0.000000    0.000000    0.000000
C     -0.850674   -1.266076   -0.001051
C     -1.753944   -1.256758    1.256601
C     -1.730621   -1.261927   -1.274635
C     -2.625842   -0.008759   -1.272072
C     -1.741153    1.253596   -1.269652
C     -0.852227    1.264162   -0.001051
C     -1.749520    1.251724    1.260640
C     -2.668318   -0.005597    1.281077
C     -3.580801    0.037091    2.512097
C     -4.476249    1.109287    2.682584
C     -5.322076    1.189672    3.781233
C     -5.297519    0.182206    4.760039
C     -6.166613    0.255000    5.897644
N     -6.872800    0.314708    6.820360
C     -4.412887   -0.894293    4.609278
C     -3.571662   -0.958637    3.500558
C     -3.524641   -0.014837   -0.019421
H     -0.183131   -2.133227    0.015477
H     -2.361741   -2.171316    1.259593
H     -1.125292   -1.284137    2.155868
H     -2.344045   -2.172749   -1.297030
H     -1.097193   -1.279453   -2.170794
H     -3.259452   -0.009180   -2.168217
H     -2.363400    2.158764   -1.285511
H     -1.113171    1.281300   -2.169318
H     -0.187259    2.133545    0.009025
H     -1.130621    1.268365    2.166872
H     -2.353967    2.166935    1.275058
H     -4.517698    1.902601    1.942410
H     -6.003471    2.027526    3.889531
H     -4.386536   -1.677262    5.360487
H     -2.901020   -1.805824    3.418195
H     -4.172035   -0.901822   -0.020436
H     -4.188205    0.858425   -0.038976


