%nprocshared=8
%mem=8GB
%chk= 1.chk
# freq b3lyp/6-31g(d)

good luck!

0 1
O      1.218056   -0.000000   -0.000000
C      0.000000    0.000000    0.000000
C     -0.835963   -1.285207    0.014367
C      0.030870   -2.567327   -0.006565
C      0.685111   -2.844208   -1.369989
C     -0.761272   -3.790714    0.480589
C     -1.933462   -1.203909   -1.076064
C     -2.772529    0.076731   -0.964853
C     -1.904520    1.341727   -1.060088
C     -2.733422    2.626536   -0.954984
C     -0.795323    1.301048    0.014367
H     -1.364300   -1.259119    0.984156
H      0.844482   -2.388100    0.707363
H      1.364343   -3.701627   -1.294499
H     -0.059053   -3.087065   -2.138686
H      1.270428   -1.984969   -1.710099
H     -1.195219   -3.621690    1.473973
H     -0.109518   -4.669549    0.548143
H     -1.580564   -4.046537   -0.202820
H     -1.466484   -1.239233   -2.069002
H     -2.582353   -2.084863   -1.006300
H     -3.316012    0.082437   -0.007342
H     -3.534977    0.090836   -1.754663
H     -1.412174    1.333513   -2.044980
H     -3.492977    2.672159   -1.744404
H     -2.101119    3.517471   -1.045184
H     -3.251407    2.681194    0.011249
H     -0.091860    2.132553   -0.095234
H     -1.265968    1.394630    1.006399


