%nprocshared=8
%mem=8GB
%chk= 0.chk
# freq b3lyp/6-31g(d)

good luck!

0 1
O      1.215527    0.000000   -0.000000
C      0.000000    0.000000    0.000000
C     -0.830008   -1.288910   -0.024765
C     -2.253222   -1.063934    0.533810
C     -2.157614   -0.802971    2.053862
C     -1.298548    0.429408    2.411550
C     -3.005011    0.073599   -0.271585
C     -1.994243    0.964762   -1.020573
C     -0.852826    1.265221   -0.024765
C     -1.434621    1.600120    1.411906
C     -2.900200    2.077941    1.303933
C     -3.827256    1.033854    0.616179
H     -0.871490   -1.631772   -1.068482
H     -0.290428   -2.063786    0.530739
H     -2.820651   -1.993714    0.402927
H     -3.163025   -0.695315    2.473145
H     -1.731694   -1.693428    2.534490
H     -0.241299    0.143576    2.478723
H     -1.572599    0.786728    3.412513
H     -3.678035   -0.410710   -0.989144
H     -2.479075    1.887624   -1.359820
H     -1.597686    0.481184   -1.921270
H     -0.220072    2.090674   -0.364888
H     -0.835142    2.426487    1.811509
H     -2.919585    3.015702    0.734997
H     -3.275503    2.325623    2.304480
H     -4.420871    0.483023    1.352634
H     -4.550799    1.557888   -0.020818


