%nprocshared=8
%mem=4GB
%chk= 1.chk
# freq b3lyp/6-31g(d)

good luck!

0 1
O      1.211587   -0.000000   -0.000000
C      0.000000    0.000000    0.000000
C     -0.884676   -1.261199   -0.001840
C     -0.266378   -2.418017   -0.790772
C     -2.238874   -0.750762   -0.468664
C     -2.282988    0.050630   -1.749523
C     -2.280115    0.774596   -0.419323
C     -3.483735    1.569160    0.103700
C     -4.802920    1.264143   -0.621960
C     -3.662556    1.374630    1.620870
C     -0.889432    1.249370   -0.001840
H     -0.968797   -1.562625    1.056154
H     -0.235932   -2.187716   -1.861502
H      0.759519   -2.596907   -0.454493
H     -0.845330   -3.338316   -0.659071
H     -3.123130   -1.327555   -0.207545
H     -1.389080    0.103916   -2.370672
H     -3.204207    0.017772   -2.321834
H     -3.259417    2.632765   -0.071835
H     -5.078398    0.205107   -0.536134
H     -5.618816    1.848052   -0.181448
H     -4.752337    1.517102   -1.685819
H     -2.752462    1.615352    2.181297
H     -4.462901    2.018213    2.003882
H     -3.929634    0.335643    1.850060
H     -0.460218    2.016365   -0.657141
H     -0.888768    1.665796    1.015253


