%nprocshared=8
%mem=4GB
%chk= 0.chk
# freq b3lyp/6-31g(d)

good luck!

0 1
O      1.211590   -0.000000   -0.000000
C      0.000000    0.000000    0.000000
C     -0.910906   -1.236682   -0.009679
C     -2.223493   -0.675602    0.567352
C     -1.146810   -1.662611   -1.483216
C     -1.609280   -0.474621   -2.353396
C     -2.676979    0.398739   -1.660617
C     -2.331938    0.675833   -0.181007
C     -0.905577    1.244187   -0.009679
H     -0.464409   -2.056114    0.560999
H     -3.083089   -1.331140    0.385782
H     -2.144373   -0.518846    1.650929
H     -0.227973   -2.092435   -1.898589
H     -1.906458   -2.456154   -1.487810
H     -0.736427    0.147558   -2.592514
H     -1.987862   -0.839484   -3.315677
H     -3.653155   -0.104367   -1.699539
H     -2.790756    1.343385   -2.208300
H     -3.089928    1.333565    0.257928
H     -0.796222    1.752237    0.958353
H     -0.587253    1.953815   -0.781417


