%nprocshared=8
%mem=4GB
%chk= 0.chk
# freq b3lyp/6-31g(d)

good luck!

0 1
O      1.211330   -0.000000   -0.000000
C      0.000000    0.000000    0.000000
C     -0.932653   -1.209580   -0.013059
C     -2.142147   -0.661968    0.775498
C     -1.502145   -1.286720   -1.472068
C     -2.124198   -2.658677   -1.762901
C     -2.478128   -0.039649   -1.534931
C     -3.940670   -0.341570   -1.885086
C     -2.321250    0.587565   -0.119203
C     -0.923326    1.233122   -0.013059
H     -0.453078   -2.128074    0.330799
H     -3.004957   -1.335300    0.766243
H     -1.906907   -0.417929    1.818194
H     -0.685454   -1.144437   -2.190166
H     -1.355465   -3.437605   -1.706401
H     -2.557953   -2.696059   -2.768175
H     -2.913735   -2.920007   -1.049897
H     -2.103764    0.666045   -2.287653
H     -4.517020    0.590462   -1.918878
H     -4.420234   -0.997946   -1.150332
H     -4.033384   -0.819661   -2.866200
H     -3.141375    1.257714    0.155107
H     -0.664366    1.915552   -0.830213
H     -0.797190    1.784106    0.928503


