%nprocshared=8
%mem=4GB
%chk= 0.chk
# freq b3lyp/6-31g(d)

good luck!

0 1
O      1.212018   -0.000000   -0.000000
C      0.000000    0.000000    0.000000
C     -0.919766   -1.230376   -0.010972
C     -0.230501   -2.521953    0.391697
C     -2.129253   -0.692977    0.838290
C     -1.761736   -0.390812    2.303706
C     -3.355881   -1.620379    0.855515
C     -1.510573   -1.216178   -1.461795
C     -2.493405   -0.005059   -1.467986
C     -2.317976    0.585307   -0.047931
C     -0.918653    1.234656   -0.010972
H     -0.904997   -3.380789    0.298443
H      0.642549   -2.700244   -0.245018
H      0.129792   -2.478320    1.425361
H     -2.569659    0.165420    2.794791
H     -0.842035    0.191387    2.415588
H     -1.621207   -1.322655    2.863384
H     -4.198868   -1.118894    1.347433
H     -3.691397   -1.926508   -0.138271
H     -3.142174   -2.531854    1.425929
H     -2.026088   -2.162669   -1.656741
H     -0.719155   -1.127998   -2.213823
H     -3.524228   -0.324002   -1.649150
H     -2.247184    0.729640   -2.241879
H     -3.129160    1.249114    0.267758
H     -0.739358    1.837762    0.885776
H     -0.701608    1.873418   -0.874580


