%nprocshared=10
%mem=12GB
%chk= 0.chk
# freq b3lyp/6-31g(d)

good luck!

0 1
O      1.217395   -0.000000   -0.000000
C      0.000000    0.000000    0.000000
C     -0.809482   -1.294630    0.007135
C     -1.970507   -1.323495   -1.017474
C     -1.538312   -1.591966   -2.456883
C     -0.220077   -1.451034   -2.911428
C      0.110179   -1.701989   -4.244428
C     -0.873131   -2.101157   -5.148555
C     -0.506620   -2.433860   -6.568151
F     -0.197321   -3.744801   -6.712542
F      0.567125   -1.730586   -6.992163
F     -1.522814   -2.178023   -7.423273
C     -2.193040   -2.252073   -4.711896
C     -2.513418   -2.000026   -3.382656
C     -2.803333   -0.019014   -0.896916
C     -1.943223    1.241883   -1.046789
C     -0.817820    1.282689    0.007135
H     -1.253293   -1.379748    1.010471
H     -0.125546   -2.138736   -0.118433
H     -2.630080   -2.154421   -0.733414
H      0.569444   -1.149857   -2.231644
H      1.135514   -1.581781   -4.578604
H     -2.962572   -2.564142   -5.410630
H     -3.542201   -2.127251   -3.052879
H     -3.603425   -0.021068   -1.645888
H     -3.293127   -0.010373    0.087520
H     -2.567434    2.138065   -0.952663
H     -1.502584    1.270510   -2.051466
H     -0.140256    2.128594   -0.140129
H     -1.267797    1.385801    1.006914


