%nprocshared=8
%mem=4GB
%chk= 0.chk
# freq b3lyp/6-31g(d)

good luck!

0 1
O      1.212113    0.000000   -0.000000
C      0.000000    0.000000    0.000000
C     -0.889529   -1.254800   -0.009684
C     -0.305278   -2.401173   -0.833145
C     -2.270793   -0.716537   -0.425737
C     -2.324719    0.706260    0.176175
C     -0.895636    1.244675   -0.009684
H     -0.946449   -1.568694    1.046926
H      0.722755   -2.606000   -0.518886
H     -0.896184   -3.316152   -0.717105
H     -0.284431   -2.144666   -1.899058
H     -3.097299   -1.351566   -0.090797
H     -2.326579   -0.660795   -1.522151
H     -2.567537    0.647051    1.244901
H     -3.086122    1.335774   -0.294327
H     -0.567529    1.971336    0.740146
H     -0.774067    1.724972   -0.991100


