%nprocshared=8
%mem=4GB
%chk= 0.chk
# freq b3lyp/6-31g(d)

good luck!

0 1
O      1.203997   -0.000000    0.000000
C      0.000000    0.000000    0.000000
C     -1.029460   -1.159953   -0.035936
C     -1.723658   -0.774468   -1.352805
C     -3.015604   -0.000000   -1.362339
C     -1.723658    0.774468   -1.352805
C     -1.029460    1.159953   -0.035936
C     -1.875997    0.787499    1.203918
C     -1.875997   -0.787499    1.203918
H     -0.603558   -2.163444   -0.025683
H     -1.435941   -1.324439   -2.244065
H     -3.553513   -0.000000   -2.307293
H     -3.671851   -0.000000   -0.497972
H     -1.435941    1.324439   -2.244065
H     -0.603558    2.163444   -0.025683
H     -1.402052    1.177735    2.110660
H     -2.883966    1.210218    1.155656
H     -1.402052   -1.177735    2.110660
H     -2.883966   -1.210218    1.155656


