%nprocshared=10
%mem=12GB
%chk= 1.chk
# freq b3lyp/6-31g(d)

good luck!

0 1
O      1.214764    0.000000   -0.000000
C      0.000000    0.000000    0.000000
C     -0.842070   -1.279585   -0.000631
C     -2.336857   -0.915369   -0.054584
C     -2.671192   -0.082126    1.221625
C     -4.176705    0.125790    1.310953
O     -4.947274   -0.733180    1.684512
O     -4.584293    1.344679    0.885566
C     -6.005758    1.562455    0.919678
C     -1.788712    1.202291    1.242509
C     -0.866706    1.250401   -0.000631
C     -1.746232    1.229475   -1.276137
C     -2.592530   -0.077673   -1.324275
H     -0.594883   -1.863978    0.895735
H     -0.547341   -1.892146   -0.862503
H     -2.953190   -1.820335   -0.059580
H     -2.438271   -0.714456    2.085135
H     -6.519313    0.842687    0.277154
H     -6.154537    2.579419    0.555749
H     -6.383197    1.458436    1.940023
H     -1.186047    1.225475    2.157170
H     -2.413274    2.099184    1.248156
H     -0.222696    2.134008    0.023926
H     -2.398149    2.110048   -1.257375
H     -1.114466    1.320684   -2.166414
H     -3.657882    0.155815   -1.418967
H     -2.326467   -0.677633   -2.202653


