%nprocshared=10
%mem=12GB
%chk= 1.chk
# freq b3lyp/6-31g(d)

good luck!

0 1
O      1.219465   -0.000000   -0.000000
C      0.000000    0.000000    0.000000
C     -0.754053   -1.326937   -0.004451
C     -1.645103   -1.572737    1.241591
C     -2.950578   -0.808517    1.239989
C     -4.164840   -1.504498    1.206733
C     -5.387899   -0.833790    1.188752
C     -5.406678    0.559769    1.201388
C     -4.202614    1.263451    1.233380
C     -2.968693    0.601500    1.254099
C     -1.687845    1.407386    1.284254
C     -0.808260    1.302339   -0.004451
C      0.091056    2.545345   -0.241101
C     -0.726784    3.729943   -0.779086
C      0.914763    2.959086    0.989304
H      0.008033   -2.109106   -0.071597
H     -1.381769   -1.384423   -0.904186
H     -1.863315   -2.645142    1.288293
H     -1.060753   -1.343408    2.144167
H     -4.148882   -2.592271    1.197144
H     -6.316727   -1.397362    1.164974
H     -6.350495    1.098254    1.187848
H     -4.217458    2.351187    1.245676
H     -1.080384    1.129680    2.156324
H     -1.949992    2.460408    1.426111
H     -1.505591    1.226776   -0.852812
H      0.806130    2.254726   -1.020730
H     -1.465474    4.086734   -0.049959
H     -1.266122    3.464776   -1.696739
H     -0.069298    4.575895   -1.011292
H      0.276371    3.304644    1.811934
H      1.584910    3.787627    0.731092
H      1.529186    2.129660    1.348266


